80097345975307934315014,4,1,2,014,15,1,2,06,2,1,2,08,2,1,2,011,14,1,2,012,13,1,2,011,11,1,2,09,13,1,2,03,8,1,2,03,5,1,2,08,8,1,2,09,2,1,2,015,6,1,2,06,2,1,2,012,2,1,2,08,8,1,2,011,14,1,2,014,1,1,2,08,11,1,2,07,4,1,2,014,13,1,2,015,11,1,2,015,12,1,2,04,5,1,2,012,1,1,2,07,11,1,2,08,12,1,2,014,5,1,2,03,4,1,2,011,14,1,2,015,2,1,2,014,12,1,2,02,13,1,2,015,5,1,2,05,6,1,2,03,7,1,2,07,2,1,2,09,3,1,2,012,3,1,2,08,13,1,2,010,14,1,2,015,15,1,2,08,2,1,2,07,10,1,2,01,11,1,2,02,15,1,2,04,6,1,2,01,13,1,2,015,13,1,2,03,6,1,2,0